r = [
0,12,17,10,1,4,16,17,11,1,5,0
];
p = [
0,7,13,28,16,16,27,17,18,24,30,0
];
e = [
0,4,10,20,6,20,6,11,12,6,17,0
];
d = [
0,214,122,258,106,243,111,256,224,184,132,283
];
d_bar = [
0,220,134,283,120,257,135,271,240,206,159,283
];
w = [
0,0.666666667,0.833333333,0.8,0.428571429,1.428571429,0.25,0.733333333,0.75,0.272727273,0.62962963,0
];
